SCIP version 5.0.0 [precision: 8 byte] [memory: block] [mode: optimized] [LP solver: NONE] [GitHash: 3bbd232]
Copyright (C) 2002-2017 Konrad-Zuse-Zentrum fuer Informationstechnik Berlin (ZIB)

External codes: 
  Readline EditLine w  GNU library for command line editing (gnu.org/s/readline)
  CppAD 20160000.1     Algorithmic Differentiation of C++ algorithms developed by B. Bell (www.coin-or.org/CppAD)
  ZLIB 1.2.5           General purpose compression library by J. Gailly and M. Adler (zlib.net)
  GMP 6.1.2            GNU Multiple Precision Arithmetic Library developed by T. Granlund (gmplib.org)

user parameter file <scip.set> not found - using default parameters

read problem <../../Split_data/output/biodeg/8/3_sample_biodeg.logreg>
============

File name	:	../../Split_data/output/biodeg/8/3_sample_biodeg.logreg
Problem name 	:	3_sample_biodeg
Number of data	:	844
Number of var	:	41
The given data has linear independence

[dim=1] time: 0.033295
[dim=2] time: 0.066366
[dim=3] time: 0.101572
[dim=4] time: 0.138807
[dim=5] time: 0.176453
[dim=6] time: 0.20582
[dim=7] time: 0.233915
[dim=8] time: 0.267849
[dim=9] time: 0.298848
[dim=10] time: 0.326004
[dim=11] time: 0.358938
[dim=12] time: 0.385726
[dim=13] time: 0.412184
[dim=14] time: 0.436603
[dim=15] time: 0.463556
[dim=16] time: 0.487597
[dim=17] time: 0.513942
[dim=18] time: 0.537992
[dim=19] time: 0.563889
[dim=20] time: 0.585655
[dim=21] time: 0.607341
[dim=22] time: 0.627357
[dim=23] time: 0.648549
[dim=24] time: 0.674185
[dim=25] Time of forward = 0.685493sec.
AIC: 518.509
k: 24

[dim=41] time: 0.151533
[dim=40] time: 0.206298
[dim=39] time: 0.244359
[dim=38] time: 0.296065
[dim=37] time: 0.349657
[dim=36] time: 0.399108
[dim=35] time: 0.443914
[dim=34] time: 0.496684
[dim=33] time: 0.593354
[dim=32] time: 0.642846
[dim=31] time: 0.669946
[dim=30] time: 0.71818
[dim=29] time: 0.750909
[dim=28] time: 0.778702
[dim=27] time: 0.81598
[dim=26] time: 0.844687
[dim=25] time: 0.901962
[dim=24] time: 0.925501
[dim=23] time: 0.950996
[dim=22] Time of backward = 0.976178sec.
AIC: 515.249
k: 23
